num_offers = 35;
num_halls = 10;
start=[31,7,39,39,20,33,54,15,13,61,57,9,8,4,79,31,26,36,3,39,16,9,89,6,20,58,35,2,32,35,70,44,12,25,2];
end=[40,40,77,54,71,93,77,78,72,72,92,35,72,82,87,59,92,37,36,83,40,29,96,76,26,92,85,91,35,86,94,82,99,97,10];
price=[890,1145,1488,990,4930,3050,1201,3435,4570,142,2514,2120,5270,6591,265,324,5953,185,2122,2097,401,1747,335,5468,139,1719,3271,1092,302,4046,1594,529,4833,2571,872];
requirement=[542,942,219,590,585,971,548,892,896,223,638,952,333,341,480,644,481,325,982,416,556,385,752,491,801,640,347,300,416,752,507,881,674,840,356];
capacity=[488,416,879,478,225,511,308,970,855,805];
